(declare-fun temp96851_1 () (_ BitVec 64))
(declare-fun temp96851_2 () (_ BitVec 64))
(declare-fun var77740 () (_ BitVec 64))
(declare-fun k!0 () Bool)
(declare-fun ARGNAME_input_1_NAMEEND_DIM () (_ BitVec 64))
(declare-fun ARGNAME_data_format_NAMEEND_STRFMT () (_ BitVec 64))
(declare-fun temp96851_3 () (_ BitVec 64))
(declare-fun ARGNAME_input_2_NAMEEND_DIM () (_ BitVec 64))
(declare-fun var77770 () (_ BitVec 64))
(declare-fun temp96851_4 () (_ BitVec 64))
(declare-fun temp96851_5 () (_ BitVec 64))
(declare-fun ARGNAME_input_1_NAMEEND_DIMSIZE
             ()
             (Array (_ BitVec 64) (_ BitVec 64)))
(declare-fun temp96851_6 () (_ BitVec 64))
(declare-fun temp96851_7 () (_ BitVec 64))
(declare-fun temp96851_8 () (_ BitVec 64))
(declare-fun temp96851_9 () (_ BitVec 64))
(declare-fun temp96851_10 () (_ BitVec 64))
(declare-fun temp96851_11 () (_ BitVec 64))
(declare-fun temp96851_12 () (_ BitVec 64))
(declare-fun temp96851_13 () (_ BitVec 64))
(declare-fun temp96851_14 () (_ BitVec 64))
(declare-fun temp96851_15 () (_ BitVec 64))
(declare-fun temp96851_16 () (_ BitVec 64))
(declare-fun temp96851_17 () (_ BitVec 64))
(declare-fun temp96851_18 () (_ BitVec 64))
(declare-fun var77799 () (_ BitVec 64))
(declare-fun temp96851_19 () (_ BitVec 64))
(declare-fun ARGNAME_input_2_NAMEEND_DIMSIZE
             ()
             (Array (_ BitVec 64) (_ BitVec 64)))
(declare-fun temp96851_20 () (_ BitVec 64))
(declare-fun temp96851_21 () (_ BitVec 64))
(declare-fun temp96851_22 () (_ BitVec 64))
(declare-fun temp96851_23 () (_ BitVec 64))
(declare-fun temp96851_24 () (_ BitVec 64))
(declare-fun temp96851_25 () (_ BitVec 64))
(declare-fun temp96851_26 () (_ BitVec 64))
(declare-fun temp96851_27 () (_ BitVec 64))
(declare-fun temp96851_28 () (_ BitVec 64))
(declare-fun temp96851_29 () (_ BitVec 64))
(declare-fun temp96851_30 () (_ BitVec 64))
(declare-fun temp96851_31 () (_ BitVec 64))
(declare-fun temp96851_32 () (_ BitVec 64))
(declare-fun var77832 () (_ BitVec 64))
(declare-fun temp96851_33 () (_ BitVec 64))
(declare-fun temp96851_34 () (_ BitVec 64))
(declare-fun var77833 () (_ BitVec 64))
(declare-fun var77834 () (_ BitVec 64))
(declare-fun temp96851_35 () (_ BitVec 64))
(declare-fun temp96851_36 () (_ BitVec 64))
(declare-fun var275510 () (_ BitVec 64))
(declare-fun temp96851_37 () (_ BitVec 64))
(declare-fun var275528 () (_ BitVec 64))
(declare-fun temp96851_38 () (_ BitVec 64))
(declare-fun temp96851_40 () (_ BitVec 64))
(declare-fun temp96851_39 () (_ BitVec 64))
(declare-fun temp96851_41 () (_ BitVec 64))
(declare-fun var472118 () (_ BitVec 64))
(declare-fun temp96851_42 () (_ BitVec 64))
(declare-fun var472136 () (_ BitVec 64))
(declare-fun temp96851_43 () (_ BitVec 64))
(declare-fun temp96851_44 () (_ BitVec 64))
(declare-fun var603190 () (_ BitVec 64))
(declare-fun temp96851_45 () (_ BitVec 64))
(declare-fun var603208 () (_ BitVec 64))
(declare-fun temp96851_46 () (_ BitVec 64))
(declare-fun temp96851_48 () (_ BitVec 64))
(declare-fun temp96851_47 () (_ BitVec 64))
(declare-fun temp96851_50 () (_ BitVec 64))
(declare-fun temp96851_49 () (_ BitVec 64))
(declare-fun temp96851_52 () (_ BitVec 64))
(declare-fun temp96851_51 () (_ BitVec 64))
(declare-fun temp96851_54 () (_ BitVec 64))
(declare-fun temp96851_53 () (_ BitVec 64))
(declare-fun temp96851_55 () (_ BitVec 64))
(declare-fun var861259 () (_ BitVec 64))
(declare-fun var861238 () (_ BitVec 64))
(declare-fun var795670 () (_ BitVec 64))
(declare-fun temp96851_56 () (_ BitVec 64))
(declare-fun temp96851_57 () (_ BitVec 64))
(declare-fun var926795 () (_ BitVec 64))
(declare-fun var926774 () (_ BitVec 64))
(declare-fun var795680 () (_ BitVec 64))
(declare-fun temp96851_58 () (_ BitVec 64))
(declare-fun temp96851_59 () (_ BitVec 64))
(declare-fun var992331 () (_ BitVec 64))
(declare-fun var992310 () (_ BitVec 64))
(declare-fun var795683 () (_ BitVec 64))
(declare-fun temp96851_60 () (_ BitVec 64))
(declare-fun temp96851_62 () (_ BitVec 64))
(declare-fun temp96851_61 () (_ BitVec 64))
(declare-fun temp96851_64 () (_ BitVec 64))
(declare-fun temp96851_63 () (_ BitVec 64))
(declare-fun temp96851_66 () (_ BitVec 64))
(declare-fun temp96851_65 () (_ BitVec 64))
(declare-fun temp96851_67 () (_ BitVec 64))
(declare-fun var1123378 () (_ BitVec 64))
(declare-fun temp96851_68 () (_ BitVec 64))
(declare-fun var1123379 () (_ BitVec 64))
(declare-fun var1123380 () (_ BitVec 64))
(declare-fun var1123376 () (_ BitVec 64))
(declare-fun var730076 () (_ BitVec 64))
(declare-fun temp96851_69 () (_ BitVec 64))
(declare-fun var1188914 () (_ BitVec 64))
(declare-fun temp96851_70 () (_ BitVec 64))
(declare-fun var1188915 () (_ BitVec 64))
(declare-fun var1188916 () (_ BitVec 64))
(declare-fun var1188912 () (_ BitVec 64))
(declare-fun var730083 () (_ BitVec 64))
(declare-fun temp96851_71 () (_ BitVec 64))
(declare-fun var1254450 () (_ BitVec 64))
(declare-fun temp96851_72 () (_ BitVec 64))
(declare-fun var1254451 () (_ BitVec 64))
(declare-fun var1254452 () (_ BitVec 64))
(declare-fun var1254448 () (_ BitVec 64))
(declare-fun var730088 () (_ BitVec 64))
(declare-fun var78095 () (_ BitVec 64))
(declare-fun temp96851_73 () (_ BitVec 64))
(declare-fun temp96851_74 () (_ BitVec 64))
(declare-fun var78184 () (_ BitVec 64))
(assert (or (= ARGNAME_data_format_NAMEEND_STRFMT #x0000000000000000)
    (= ARGNAME_data_format_NAMEEND_STRFMT #x0000000000000001)
    (= ARGNAME_data_format_NAMEEND_STRFMT #x0000000000000002)
    (= ARGNAME_data_format_NAMEEND_STRFMT #x0000000000000003)
    (= ARGNAME_data_format_NAMEEND_STRFMT #x0000000000000004)
    (= ARGNAME_data_format_NAMEEND_STRFMT #x0000000000000005)))
(assert (= temp96851_1 #x0000000000000005))
(assert (= var77740
   (ite (= ARGNAME_input_1_NAMEEND_DIM temp96851_1)
        #x0000000000000001
        #x0000000000000000)))
(assert (= temp96851_2 #x0000000000000001))
(assert (= var77740 temp96851_2))
(assert (= temp96851_3 #x0000000000000005))
(assert (= var77770
   (ite (= ARGNAME_input_2_NAMEEND_DIM temp96851_3)
        #x0000000000000001
        #x0000000000000000)))
(assert (= temp96851_4 #x0000000000000001))
(assert (= var77770 temp96851_4))
(assert (= temp96851_5 #x0000000000000000))
(assert (= temp96851_6 (select ARGNAME_input_1_NAMEEND_DIMSIZE temp96851_5)))
(assert (= temp96851_7 #x0000000000000001))
(assert (= temp96851_8 (select ARGNAME_input_1_NAMEEND_DIMSIZE temp96851_7)))
(assert (= temp96851_9 #x0000000000000002))
(assert (= temp96851_10 (select ARGNAME_input_1_NAMEEND_DIMSIZE temp96851_9)))
(assert (= temp96851_11 #x0000000000000003))
(assert (= temp96851_12 (select ARGNAME_input_1_NAMEEND_DIMSIZE temp96851_11)))
(assert (= temp96851_13 #x0000000000000004))
(assert (= temp96851_14 (select ARGNAME_input_1_NAMEEND_DIMSIZE temp96851_13)))
(assert (= temp96851_15 #x0000000000000005))
(assert (= temp96851_16 (select ARGNAME_input_1_NAMEEND_DIMSIZE temp96851_15)))
(assert (= temp96851_17 #x0000000000000003))
(assert (= temp96851_18 (select ARGNAME_input_1_NAMEEND_DIMSIZE temp96851_17)))
(assert (= var77799 temp96851_18))
(assert (= temp96851_19 #x0000000000000000))
(assert (= temp96851_20 (select ARGNAME_input_2_NAMEEND_DIMSIZE temp96851_19)))
(assert (= temp96851_21 #x0000000000000001))
(assert (= temp96851_22 (select ARGNAME_input_2_NAMEEND_DIMSIZE temp96851_21)))
(assert (= temp96851_23 #x0000000000000002))
(assert (= temp96851_24 (select ARGNAME_input_2_NAMEEND_DIMSIZE temp96851_23)))
(assert (= temp96851_25 #x0000000000000003))
(assert (= temp96851_26 (select ARGNAME_input_2_NAMEEND_DIMSIZE temp96851_25)))
(assert (= temp96851_27 #x0000000000000004))
(assert (= temp96851_28 (select ARGNAME_input_2_NAMEEND_DIMSIZE temp96851_27)))
(assert (= temp96851_29 #x0000000000000005))
(assert (= temp96851_30 (select ARGNAME_input_2_NAMEEND_DIMSIZE temp96851_29)))
(assert (= temp96851_31 #x0000000000000004))
(assert (= temp96851_32 (select ARGNAME_input_2_NAMEEND_DIMSIZE temp96851_31)))
(assert (= var77832 temp96851_32))
(assert (= temp96851_33 #x0000000000000004))
(assert (= temp96851_34 (select ARGNAME_input_1_NAMEEND_DIMSIZE temp96851_33)))
(assert (= var77833 temp96851_34))
(assert (= var77834 (ite (= var77832 var77833) #x0000000000000001 #x0000000000000000)))
(assert (= temp96851_35 #x0000000000000001))
(assert (= var77834 temp96851_35))
(assert (= temp96851_36 #x0000000000000001))
(assert (= var275510 temp96851_36))
(assert (= temp96851_37 #x0000000000000001))
(assert (= var275528
   (ite (bvslt var275510 temp96851_37) #x0000000000000001 #x0000000000000000)))
(assert (= temp96851_38 #x0000000000000000))
(assert (= var275528 temp96851_38))
(assert (= temp96851_40 #x0000000000000000))
(assert (= temp96851_39 temp96851_40))
(assert (= temp96851_41 #x0000000000000001))
(assert (= var472118 temp96851_41))
(assert (= temp96851_42 #x0000000000000001))
(assert (= var472136
   (ite (bvslt var472118 temp96851_42) #x0000000000000001 #x0000000000000000)))
(assert (= temp96851_43 #x0000000000000000))
(assert (= var472136 temp96851_43))
(assert (= temp96851_44 #x0000000000000001))
(assert (= var603190 temp96851_44))
(assert (= temp96851_45 #x0000000000000001))
(assert (= var603208
   (ite (bvslt var603190 temp96851_45) #x0000000000000001 #x0000000000000000)))
(assert (= temp96851_46 #x0000000000000000))
(assert (= var603208 temp96851_46))
(assert (= temp96851_48 #x0000000000000000))
(assert (= temp96851_47 temp96851_48))
(assert (= temp96851_50 #x00000000000000ff))
(assert (= temp96851_49 temp96851_50))
(assert (= temp96851_52 #x00000000000000ff))
(assert (= temp96851_51 temp96851_52))
(assert (= temp96851_54 #x00000000000000ff))
(assert (= temp96851_53 temp96851_54))
(assert (= temp96851_55 #x0000000000000000))
(assert (= var861259 temp96851_55))
(assert (= var861238 var861259))
(assert (= var795670 var861238))
(assert (= temp96851_56 #x0000000000000000))
(assert (= var795670 temp96851_56))
(assert (= temp96851_57 #x0000000000000000))
(assert (= var926795 temp96851_57))
(assert (= var926774 var926795))
(assert (= var795680 var926774))
(assert (= temp96851_58 #x0000000000000000))
(assert (= var795680 temp96851_58))
(assert (= temp96851_59 #x0000000000000000))
(assert (= var992331 temp96851_59))
(assert (= var992310 var992331))
(assert (= var795683 var992310))
(assert (= temp96851_60 #x0000000000000000))
(assert (= var795683 temp96851_60))
(assert (= temp96851_62 #x0000000000000000))
(assert (= temp96851_61 temp96851_62))
(assert (= temp96851_64 #x0000000000000000))
(assert (= temp96851_63 temp96851_64))
(assert (= temp96851_66 #x0000000000000000))
(assert (= temp96851_65 temp96851_66))
(assert (= temp96851_67 #x0000000000008000))
(assert (= var1123378 temp96851_67))
(assert (= temp96851_68 #x0000000000000001))
(assert (= var1123379
   (ite (bvslt temp96851_65 temp96851_68) #x0000000000000001 #x0000000000000000)))
(assert (= var1123380 (ite (= var1123379 #x0000000000000001) var1123378 temp96851_65)))
(assert (= var1123376 var1123380))
(assert (= var730076 var1123376))
(assert (= temp96851_69 #x0000000000040000))
(assert (= var1188914 temp96851_69))
(assert (= temp96851_70 #x0000000000000001))
(assert (= var1188915
   (ite (bvslt temp96851_63 temp96851_70) #x0000000000000001 #x0000000000000000)))
(assert (= var1188916 (ite (= var1188915 #x0000000000000001) var1188914 temp96851_63)))
(assert (= var1188912 var1188916))
(assert (= var730083 var1188912))
(assert (= temp96851_71 #x0000000000200000))
(assert (= var1254450 temp96851_71))
(assert (= temp96851_72 #x0000000000000001))
(assert (= var1254451
   (ite (bvslt temp96851_61 temp96851_72) #x0000000000000001 #x0000000000000000)))
(assert (= var1254452 (ite (= var1254451 #x0000000000000001) var1254450 temp96851_61)))
(assert (= var1254448 var1254452))
(assert (= var730088 var1254448))
(assert (= var78095 var730088))
(assert (= temp96851_73 #x0000000000000003))
(assert (= temp96851_74 #x0000000000000001))
(assert (= var78184 temp96851_74))
(model-add temp96851_1 () (_ BitVec 64) #x0000000000000005)
(model-add temp96851_2 () (_ BitVec 64) #x0000000000000001)
(model-add var77740 () (_ BitVec 64) #x0000000000000001)
(model-del k!0)
(model-add ARGNAME_input_1_NAMEEND_DIM
           ()
           (_ BitVec 64)
           (ite k!0 #x0000000000000005 (bvnot #x0000000000000005)))

